p cnf 15 34
15 -11 -5 0
-15 6 -1 0
14 12 -11 0
-14 12 -9 0
14 -8 -7 0
-14 -4 2 0
-14 2 -1 0
-13 -11 -2 0
13 -2 1 0
-12 10 9 0
12 10 -3 0
12 8 -6 0
12 7 4 0
-12 -6 -3 0
11 -10 4 0
-11 -10 3 0
11 8 -7 0
-11 -8 4 0
11 7 -4 0
11 -7 1 0
11 -4 -3 0
-10 9 -8 0
-10 -8 -4 0
-10 -7 2 0
-10 6 -4 0
10 -4 -2 0
10 3 -2 0
-9 8 2 0
8 2 -1 0
-7 6 -2 0
-7 5 4 0
-7 -3 -2 0
6 -5 -1 0
4 -3 2 0
